language ESSENCE' 1.0

letting jobs = 102
letting horizon = 783
letting resourcesRenew = 2
letting resourcesNonrenew = 2
letting resourceLimits = [78, 72, 583, 584]
letting successors = [[2, 3, 4, 5, 6, 7, 8, 9, 10, 11, 12, 14, 15, 17, 18, 19, 20, 22, 23, 25, 26, 28, 29, 30, 32, 33, 42, 43, 46, 50, 52], [98, 66, 55, 53, 47, 45, 44, 41, 40, 35, 16, 13], [101, 67, 66, 61, 59, 56, 54, 51, 41, 38, 34, 27, 24], [100, 99, 97, 96, 94, 93, 88, 61, 56, 49, 47, 45, 39, 38, 31], [96, 94, 57, 54, 49, 47, 44, 37, 21], [100, 97, 96, 92, 61, 59, 57, 55, 54, 53, 48, 47, 41], [98, 97, 96, 95, 93, 92, 64, 59, 57, 56, 53, 47, 44, 41], [101, 100, 98, 97, 96, 94, 93, 90, 87, 84, 83, 81, 80, 79, 78, 71, 66, 65, 64, 63, 60, 59, 57, 56, 53], [99, 98, 95, 92, 90, 87, 86, 79, 66, 65, 64, 59, 58, 56, 53, 44, 40], [100, 99, 97, 96, 95, 94, 93, 92, 91, 89, 85, 82, 81, 79, 78, 76, 66, 65, 60, 59, 57, 47], [101, 100, 98, 96, 94, 93, 92, 91, 88, 87, 85, 81, 79, 78, 59, 58, 56, 53, 47], [97, 96, 94, 92, 91, 88, 78, 66, 64, 62, 59, 56, 53, 47, 45], [100, 97, 96, 95, 94, 92, 90, 87, 84, 81, 79, 78, 72, 71, 69, 67, 65, 64, 61, 60, 56, 54], [101, 100, 98, 95, 93, 87, 86, 84, 83, 79, 60, 59, 57, 56, 53, 40], [96, 93, 92, 90, 85, 84, 83, 82, 80, 79, 77, 72, 69, 66, 60, 56, 55, 41], [101, 100, 97, 96, 95, 94, 92, 91, 90, 88, 87, 86, 85, 84, 83, 82, 81, 80, 79, 78, 74, 62, 59, 58, 57], [98, 94, 93, 91, 87, 79, 78, 66, 60, 58, 56, 53, 47, 44], [100, 99, 96, 95, 94, 93, 91, 89, 87, 86, 85, 83, 81, 78, 74, 59, 58, 57, 53, 48], [101, 96, 94, 92, 91, 90, 88, 86, 82, 81, 78, 75, 67, 64, 58, 57, 54, 48], [101, 99, 95, 92, 90, 83, 71, 68, 65, 63, 60, 56, 48, 45], [101, 100, 99, 98, 91, 90, 87, 86, 85, 84, 83, 82, 81, 80, 79, 78, 77, 76, 74, 59, 58, 56], [97, 95, 90, 89, 87, 86, 84, 83, 80, 78, 77, 66, 60, 58, 45], [100, 98, 93, 92, 91, 88, 87, 81, 78, 67, 60, 58, 57, 51, 48], [98, 97, 96, 95, 92, 89, 88, 87, 85, 82, 78, 76, 73, 72, 64, 47], [99, 98, 96, 89, 88, 80, 67, 57, 36], [97, 93, 90, 87, 86, 85, 84, 83, 82, 81, 80, 79, 77, 76, 75, 74, 73, 72, 71, 70, 69, 65], [98, 94, 93, 89, 79, 78, 76, 58, 57, 44], [97, 87, 86, 79, 72, 71, 69, 64, 60, 56, 54], [99, 92, 91, 90, 87, 86, 84, 83, 80, 78, 76, 74, 73, 70, 65, 58], [99, 97, 95, 90, 89, 85, 84, 80, 69, 67, 60, 55], [101, 98, 89, 87, 85, 81, 80, 77, 74, 73, 70, 66, 59, 58], [95, 93, 88, 87, 85, 84, 82, 81, 78, 77, 76, 75, 74, 72, 69, 64], [87, 86, 85, 82, 81, 79, 78, 77, 76, 75, 72, 71, 69, 56], [92, 91, 90, 87, 79, 78, 77, 76, 73, 72, 70, 60, 58], [95, 90, 87, 85, 84, 82, 78, 59, 58, 57], [83, 78, 76, 75, 74, 72, 71, 70, 51], [97, 91, 88, 86, 85, 83, 82, 80, 77, 76, 75, 71, 70, 69], [92, 84, 82, 80, 79, 77, 75, 72, 71, 69, 64, 57], [92, 91, 89, 85, 84, 83, 82, 81, 72, 70, 58], [94, 91, 88, 85, 81, 80, 78, 76, 73, 72, 71, 69], [99, 94, 91, 89, 87, 81, 78, 76, 71, 70, 65], [95, 91, 87, 84, 81, 80, 79, 71, 69, 59], [86, 77, 72, 71, 69, 66, 57, 56], [85, 83, 82, 81, 80, 77, 74, 73, 72, 70], [85, 82, 81, 79, 74, 72, 69, 57], [95, 82, 79, 77, 72, 71, 69, 57], [90, 86, 84, 83, 80, 74, 71, 69], [84, 79, 77, 73, 72, 70, 69], [90, 83, 82, 78, 76, 71, 69], [88, 87, 82, 80, 79, 74, 69], [86, 84, 79, 77, 73, 69], [92, 90, 83, 78, 74, 71], [82, 77, 76, 70, 69], [93, 83, 80, 76, 74], [88, 81, 78, 70], [89, 73, 70], [73, 70], [71, 69], [75, 72], [75, 74], [85, 80], [76, 71], [86, 76], [70], [88], [75], [77], [79], [102], [102], [102], [102], [102], [102], [102], [102], [102], [102], [102], [102], [102], [102], [102], [102], [102], [102], [102], [102], [102], [102], [102], [102], [102], [102], [102], [102], [102], [102], [102], [102], [102], []]
letting durations = [[0], [3, 4, 5], [3, 7, 8], [1, 2, 4], [3, 5, 10], [6, 7, 10], [6, 7, 8], [4, 7, 9], [6, 8, 9], [1, 4, 9], [2, 4, 10], [4, 7, 9], [5, 8, 9], [4, 5, 9], [2, 4, 7], [2, 4, 6], [3, 6, 7], [2, 3, 7], [2, 5, 8], [5, 5, 6], [5, 6, 7], [2, 9, 10], [5, 8, 9], [3, 4, 9], [1, 2, 10], [2, 6, 7], [5, 6, 6], [1, 9, 10], [4, 4, 5], [2, 5, 6], [2, 4, 6], [2, 4, 7], [2, 5, 7], [4, 8, 10], [4, 6, 8], [3, 6, 10], [5, 6, 9], [2, 2, 6], [1, 2, 7], [1, 6, 10], [5, 6, 8], [4, 10, 10], [4, 6, 7], [2, 4, 10], [1, 2, 4], [1, 5, 6], [1, 6, 6], [6, 8, 9], [1, 5, 8], [1, 6, 7], [1, 3, 4], [4, 8, 9], [1, 4, 6], [4, 8, 10], [3, 8, 8], [1, 5, 9], [7, 8, 10], [5, 5, 9], [7, 8, 9], [2, 5, 5], [4, 5, 9], [4, 5, 9], [4, 5, 7], [3, 8, 10], [1, 3, 4], [1, 4, 8], [1, 4, 6], [1, 2, 4], [2, 2, 3], [2, 3, 9], [1, 2, 8], [2, 3, 10], [1, 5, 9], [1, 5, 7], [1, 2, 6], [2, 5, 9], [4, 5, 7], [4, 5, 10], [8, 9, 10], [3, 4, 9], [1, 2, 6], [3, 3, 5], [1, 2, 4], [3, 6, 9], [4, 7, 9], [4, 5, 7], [2, 5, 8], [1, 4, 8], [2, 5, 10], [3, 5, 7], [5, 6, 10], [2, 4, 8], [7, 7, 8], [2, 3, 10], [4, 5, 10], [1, 3, 5], [6, 8, 9], [1, 1, 10], [2, 2, 4], [1, 7, 10], [4, 5, 9], [0]]
letting resourceUsage = [[[0, 0, 0, 0]], [[0, 8, 8, 5], [0, 7, 6, 5], [1, 0, 4, 5]], [[0, 10, 4, 4], [4, 0, 3, 3], [0, 8, 2, 3]], [[0, 6, 4, 7], [5, 0, 3, 5], [3, 0, 2, 3]], [[6, 0, 6, 7], [0, 8, 5, 5], [4, 0, 5, 5]], [[7, 0, 8, 2], [0, 3, 8, 1], [3, 0, 7, 1]], [[9, 0, 5, 6], [0, 2, 4, 6], [8, 0, 4, 3]], [[6, 0, 5, 9], [5, 0, 4, 9], [5, 0, 4, 8]], [[0, 7, 8, 1], [0, 7, 6, 1], [0, 7, 2, 1]], [[6, 0, 10, 6], [6, 0, 10, 4], [0, 10, 10, 3]], [[9, 0, 7, 7], [6, 0, 3, 6], [4, 0, 2, 6]], [[10, 0, 8, 10], [0, 6, 6, 9], [0, 3, 2, 8]], [[7, 0, 9, 8], [0, 8, 7, 7], [3, 0, 5, 5]], [[3, 0, 7, 6], [2, 0, 7, 6], [2, 0, 6, 5]], [[2, 0, 8, 8], [2, 0, 8, 7], [2, 0, 8, 5]], [[0, 6, 5, 10], [2, 0, 2, 8], [0, 5, 1, 4]], [[8, 0, 7, 2], [0, 3, 6, 2], [0, 2, 5, 2]], [[5, 0, 4, 3], [3, 0, 3, 3], [2, 0, 2, 3]], [[8, 0, 10, 5], [6, 0, 4, 4], [4, 0, 2, 4]], [[7, 0, 8, 8], [0, 5, 6, 6], [4, 0, 4, 5]], [[0, 1, 6, 4], [0, 1, 3, 2], [3, 0, 1, 2]], [[7, 0, 9, 10], [5, 0, 9, 7], [4, 0, 9, 4]], [[5, 0, 8, 7], [0, 8, 8, 4], [3, 0, 8, 3]], [[9, 0, 8, 7], [5, 0, 7, 3], [3, 0, 7, 1]], [[1, 0, 3, 8], [0, 4, 3, 5], [1, 0, 3, 4]], [[0, 9, 8, 6], [0, 9, 6, 4], [0, 8, 5, 3]], [[0, 7, 3, 10], [6, 0, 3, 6], [0, 2, 3, 4]], [[0, 7, 5, 5], [0, 7, 4, 4], [6, 0, 4, 2]], [[0, 3, 6, 6], [3, 0, 4, 5], [3, 0, 2, 4]], [[0, 6, 3, 10], [0, 5, 1, 9], [0, 4, 1, 9]], [[6, 0, 4, 9], [6, 0, 2, 9], [6, 0, 2, 8]], [[8, 0, 9, 9], [0, 3, 8, 7], [0, 2, 8, 6]], [[5, 0, 7, 2], [5, 0, 4, 2], [3, 0, 4, 2]], [[7, 0, 8, 4], [6, 0, 7, 3], [3, 0, 5, 1]], [[2, 0, 2, 7], [2, 0, 2, 6], [0, 4, 2, 7]], [[0, 8, 9, 7], [0, 8, 7, 6], [0, 8, 6, 6]], [[0, 6, 10, 9], [7, 0, 8, 7], [7, 0, 8, 5]], [[0, 7, 3, 7], [6, 0, 2, 5], [5, 0, 2, 5]], [[5, 0, 8, 5], [4, 0, 7, 5], [0, 6, 7, 5]], [[5, 0, 8, 7], [0, 8, 4, 7], [3, 0, 1, 6]], [[9, 0, 9, 9], [9, 0, 9, 7], [9, 0, 8, 6]], [[0, 9, 5, 6], [5, 0, 3, 4], [0, 5, 2, 2]], [[0, 5, 6, 8], [3, 0, 4, 3], [0, 3, 3, 3]], [[0, 5, 10, 6], [0, 5, 9, 4], [8, 0, 7, 4]], [[0, 4, 3, 7], [0, 2, 2, 6], [4, 0, 2, 6]], [[0, 6, 7, 5], [0, 6, 4, 5], [0, 4, 4, 4]], [[0, 4, 7, 6], [2, 0, 6, 3], [0, 3, 6, 2]], [[0, 4, 9, 5], [0, 2, 9, 5], [8, 0, 9, 4]], [[8, 0, 5, 8], [0, 6, 3, 7], [6, 0, 1, 4]], [[0, 4, 6, 9], [0, 4, 5, 8], [0, 4, 5, 6]], [[7, 0, 9, 9], [0, 5, 9, 8], [0, 4, 9, 8]], [[8, 0, 8, 5], [0, 2, 7, 3], [0, 2, 7, 2]], [[0, 7, 5, 10], [0, 7, 3, 10], [7, 0, 3, 10]], [[0, 9, 6, 6], [4, 0, 6, 6], [0, 6, 2, 3]], [[6, 0, 6, 8], [0, 6, 5, 4], [2, 0, 5, 3]], [[4, 0, 3, 7], [2, 0, 3, 6], [2, 0, 3, 5]], [[0, 6, 10, 7], [0, 5, 8, 4], [4, 0, 6, 3]], [[0, 7, 9, 10], [3, 0, 8, 8], [0, 6, 7, 7]], [[5, 0, 9, 1], [0, 3, 8, 1], [1, 0, 7, 1]], [[0, 5, 5, 7], [4, 0, 4, 5], [0, 1, 4, 2]], [[8, 0, 3, 7], [8, 0, 3, 6], [8, 0, 3, 5]], [[0, 4, 9, 3], [0, 3, 6, 3], [0, 2, 5, 3]], [[0, 6, 7, 9], [0, 5, 5, 9], [3, 0, 3, 8]], [[5, 0, 8, 6], [0, 7, 5, 6], [0, 7, 3, 3]], [[0, 2, 4, 6], [0, 1, 4, 6], [2, 0, 3, 5]], [[0, 1, 8, 9], [0, 1, 7, 7], [0, 1, 6, 4]], [[0, 8, 2, 5], [0, 7, 2, 4], [0, 6, 2, 2]], [[0, 4, 4, 2], [0, 4, 4, 1], [6, 0, 4, 1]], [[6, 0, 9, 6], [0, 6, 7, 5], [4, 0, 7, 3]], [[6, 0, 8, 10], [6, 0, 6, 8], [0, 7, 2, 8]], [[0, 6, 5, 5], [4, 0, 3, 5], [3, 0, 1, 3]], [[0, 10, 8, 9], [5, 0, 7, 5], [3, 0, 4, 2]], [[0, 10, 2, 6], [0, 5, 2, 4], [0, 2, 2, 2]], [[0, 8, 8, 4], [8, 0, 5, 3], [8, 0, 5, 2]], [[5, 0, 3, 6], [4, 0, 3, 4], [4, 0, 3, 3]], [[7, 0, 7, 1], [4, 0, 7, 1], [4, 0, 3, 1]], [[8, 0, 5, 10], [0, 6, 3, 7], [0, 2, 3, 6]], [[4, 0, 6, 8], [0, 4, 6, 5], [4, 0, 5, 4]], [[9, 0, 8, 4], [0, 2, 3, 2], [3, 0, 1, 1]], [[10, 0, 5, 6], [10, 0, 2, 4], [0, 8, 1, 4]], [[0, 9, 9, 8], [9, 0, 6, 5], [0, 5, 6, 2]], [[0, 6, 5, 4], [1, 0, 4, 3], [0, 4, 3, 1]], [[0, 4, 6, 8], [0, 3, 4, 7], [7, 0, 3, 5]], [[8, 0, 10, 10], [7, 0, 10, 9], [0, 4, 10, 8]], [[0, 6, 3, 8], [9, 0, 2, 5], [0, 3, 2, 4]], [[0, 8, 7, 4], [5, 0, 6, 4], [0, 8, 6, 3]], [[0, 5, 7, 5], [0, 3, 5, 4], [2, 0, 5, 4]], [[0, 7, 10, 3], [0, 4, 8, 2], [0, 3, 7, 2]], [[0, 10, 5, 9], [5, 0, 4, 9], [2, 0, 1, 9]], [[6, 0, 7, 5], [4, 0, 5, 4], [0, 1, 3, 4]], [[9, 0, 3, 3], [8, 0, 2, 2], [8, 0, 2, 1]], [[6, 0, 7, 4], [5, 0, 3, 2], [0, 2, 1, 2]], [[0, 9, 3, 3], [6, 0, 2, 3], [0, 7, 2, 3]], [[4, 0, 6, 7], [0, 2, 5, 6], [1, 0, 5, 2]], [[3, 0, 6, 4], [0, 5, 5, 2], [0, 3, 5, 2]], [[3, 0, 9, 5], [0, 4, 8, 4], [2, 0, 8, 3]], [[8, 0, 4, 9], [0, 2, 2, 7], [0, 2, 2, 6]], [[0, 6, 2, 8], [6, 0, 2, 7], [6, 0, 2, 6]], [[0, 7, 7, 9], [6, 0, 7, 9], [3, 0, 5, 9]], [[7, 0, 1, 5], [0, 2, 1, 4], [0, 1, 1, 4]], [[0, 8, 8, 9], [0, 8, 7, 7], [3, 0, 5, 4]], [[0, 0, 0, 0]]]
